Li16 Ti16 S32  [FCC,FCC,cF64] (STD_PRIM 
   1.00000000000000     
     0.0000000000000000    5.9983887160371232    5.9983887160371232
     5.9983887160371232    0.0000000000000000    5.9983887160371232
     5.9983887160371232    5.9983887160371232    0.0000000000000000
   Ag   Sb   Te
     4     4     8
Direct
  0.5000000000000000  0.0000000000000000  0.5000000000000000
  0.0000000000000000  0.5000000000000000  0.5000000000000000
  0.5000000000000000  0.5000000000000000  0.5000000000000000
  0.5000000000000000  0.5000000000000000  0.0000000000000000
  0.5000000000000000  0.0000000000000000  0.0000000000000000
  0.0000000000000000  0.0000000000000000  0.5000000000000000
  0.0000000000000000  0.0000000000000000  0.0000000000000000
  0.0000000000000000  0.5000000000000000  0.0000000000000000
  0.2554804153090586  0.2554804153090586  0.2554804153090657
  0.2554804153090586  0.7335587540728170  0.2554804153090657
  0.7335587540728170  0.2554804153090586  0.2554804153090657
  0.2554804153090586  0.2554804153090586  0.7335587540728312
  0.2664412459271830  0.7445195846909414  0.7445195846909343
  0.7445195846909414  0.7445195846909414  0.2664412459271688
  0.7445195846909414  0.7445195846909414  0.7445195846909343
  0.7445195846909414  0.2664412459271830  0.7445195846909343
 
  0.00000000E+00  0.00000000E+00  0.00000000E+00
  0.00000000E+00  0.00000000E+00  0.00000000E+00
  0.00000000E+00  0.00000000E+00  0.00000000E+00
  0.00000000E+00  0.00000000E+00  0.00000000E+00
  0.00000000E+00  0.00000000E+00  0.00000000E+00
  0.00000000E+00  0.00000000E+00  0.00000000E+00
  0.00000000E+00  0.00000000E+00  0.00000000E+00
  0.00000000E+00  0.00000000E+00  0.00000000E+00
  0.00000000E+00  0.00000000E+00  0.00000000E+00
  0.00000000E+00  0.00000000E+00  0.00000000E+00
  0.00000000E+00  0.00000000E+00  0.00000000E+00
  0.00000000E+00  0.00000000E+00  0.00000000E+00
  0.00000000E+00  0.00000000E+00  0.00000000E+00
  0.00000000E+00  0.00000000E+00  0.00000000E+00
  0.00000000E+00  0.00000000E+00  0.00000000E+00
  0.00000000E+00  0.00000000E+00  0.00000000E+00
